SDVRP instances/custom_instances/p03_19_split0.vrp
NAME:p03_19_split
BEST_KNOWN: 0
COMMENT: 0
DIMENSION: 478
CAPACITY: 200
EDGE_WEIGHT_FORMAT: FUNCTION
EDGE_WEIGHT_TYPE: EXACT_2D
NODE_COORD_SECTION
1 0.00000 0.00000
2 -2 -37
3 -2 -37
4 -2 -37
5 -2 -37
6 49 -46
7 49 -46
8 49 -46
9 49 -46
10 49 -46
11 49 -46
12 47 -29
13 47 -29
14 47 -29
15 47 -29
16 47 -29
17 -5 -16
18 -5 -16
19 -5 -16
20 -5 -16
21 -5 -16
22 -5 -16
23 -14 31
24 -14 31
25 -14 31
26 -14 31
27 -14 31
28 -14 31
29 37 -47
30 37 -47
31 37 -47
32 37 -47
33 -38 39
34 -38 39
35 -38 39
36 -38 39
37 -38 39
38 -38 39
39 -44 35
40 -44 35
41 -44 35
42 1 -46
43 1 -46
44 1 -46
45 1 -46
46 1 -46
47 1 -46
48 1 -46
49 1 -46
50 33 37
51 33 37
52 33 37
53 33 37
54 33 37
55 33 37
56 -6 -23
57 -6 -23
58 -6 -23
59 -6 -23
60 26 -20
61 26 -20
62 26 -20
63 26 -20
64 26 -20
65 26 -20
66 8 -42
67 8 -42
68 8 -42
69 8 -42
70 14 -39
71 14 -39
72 14 -39
73 -45 -28
74 -45 -28
75 -45 -28
76 -45 -28
77 -45 -28
78 -45 -28
79 -22 42
80 -22 42
81 -22 42
82 -22 42
83 -20 -29
84 -20 -29
85 -20 -29
86 -20 -29
87 -20 -29
88 -20 -29
89 -20 -29
90 -11 -12
91 -11 -12
92 -11 -12
93 -11 -12
94 -11 -12
95 17 29
96 17 29
97 17 29
98 17 29
99 -35 -26
100 -35 -26
101 -35 -26
102 -35 -26
103 -35 -26
104 -35 -26
105 -35 -26
106 -35 -26
107 20 -30
108 20 -30
109 20 -30
110 20 -30
111 20 -30
112 19 28
113 19 28
114 19 28
115 37 -4
116 37 -4
117 37 -4
118 37 -4
119 37 -4
120 14 -31
121 14 -31
122 14 -31
123 14 -31
124 14 -31
125 14 -31
126 14 -31
127 -23 33
128 -23 33
129 -23 33
130 -23 33
131 -23 33
132 3 -22
133 3 -22
134 3 -22
135 3 -22
136 3 -22
137 3 -22
138 3 -22
139 3 -22
140 -11 35
141 -11 35
142 -11 35
143 -11 35
144 -11 35
145 -11 35
146 21 2
147 21 2
148 21 2
149 21 2
150 -2 -7
151 -2 -7
152 -2 -7
153 -36 -27
154 -36 -27
155 -36 -27
156 -36 -27
157 28 -46
158 28 -46
159 28 -46
160 23 12
161 23 12
162 23 12
163 23 12
164 -7 -16
165 -7 -16
166 -7 -16
167 -7 -16
168 -33 35
169 -33 35
170 -33 35
171 -33 35
172 -33 35
173 -33 35
174 -11 -10
175 -11 -10
176 -11 -10
177 -11 -10
178 -19 3
179 -19 3
180 -19 3
181 -19 3
182 -26 -10
183 -26 -10
184 -26 -10
185 -26 -10
186 -26 -10
187 2 -8
188 2 -8
189 2 -8
190 2 -8
191 22 43
192 22 43
193 22 43
194 22 43
195 22 43
196 -5 -28
197 -19 9
198 -19 9
199 -19 9
200 -19 9
201 -43 19
202 -43 19
203 -9 42
204 14 35
205 14 35
206 14 35
207 -21 17
208 -21 17
209 -21 17
210 -21 17
211 -21 17
212 30 3
213 30 3
214 30 3
215 30 3
216 30 3
217 -49 9
218 -49 9
219 -49 9
220 -5 9
221 -5 9
222 -5 9
223 -5 9
224 -5 9
225 -5 9
226 -44 -34
227 -44 -34
228 -6 18
229 -6 18
230 -6 18
231 -6 18
232 -6 18
233 -6 18
234 -6 18
235 -22 -11
236 -22 -11
237 -22 -11
238 -22 -11
239 -22 -11
240 -22 -11
241 -22 -11
242 34 -6
243 34 -6
244 34 -6
245 34 -6
246 7 -3
247 7 -3
248 7 -3
249 -25 -24
250 -25 -24
251 -25 -24
252 -25 -24
253 41 46
254 41 46
255 41 46
256 41 46
257 41 46
258 41 46
259 41 46
260 -50 39
261 -50 39
262 -50 39
263 -50 39
264 -50 39
265 -50 39
266 -50 39
267 23 -9
268 23 -9
269 23 -9
270 23 -9
271 23 -9
272 23 -9
273 23 -9
274 23 -9
275 -5 -44
276 -5 -44
277 -5 -44
278 -5 -44
279 -5 -44
280 -37 13
281 -37 13
282 -37 13
283 -37 13
284 -37 13
285 25 14
286 25 14
287 25 14
288 25 14
289 25 14
290 -10 -29
291 -10 -29
292 -10 -29
293 -10 -29
294 -22 21
295 -22 21
296 -22 21
297 -22 21
298 -22 21
299 -41 22
300 -41 22
301 -41 22
302 -41 22
303 -41 22
304 -41 22
305 -19 -2
306 -19 -2
307 -19 -2
308 -19 -2
309 -19 -2
310 -19 -2
311 -19 -2
312 18 46
313 18 46
314 18 46
315 18 46
316 43 15
317 43 15
318 43 15
319 43 15
320 43 15
321 43 15
322 43 15
323 31 5
324 31 5
325 31 5
326 31 5
327 31 5
328 31 5
329 -12 21
330 -12 21
331 -12 21
332 -12 21
333 -12 21
334 -33 -35
335 -33 -35
336 -33 -35
337 -33 -35
338 -33 -35
339 -33 -35
340 -15 40
341 -15 40
342 -15 40
343 -15 40
344 -15 40
345 20 10
346 20 10
347 20 10
348 -30 17
349 -30 17
350 -30 17
351 -42 -44
352 -42 -44
353 -42 -44
354 -42 -44
355 -42 -44
356 -6 -28
357 -6 -28
358 -6 -28
359 -6 -28
360 -6 -28
361 20 30
362 20 30
363 20 30
364 20 30
365 20 30
366 -48 41
367 -48 41
368 -48 41
369 -48 41
370 -48 41
371 -23 7
372 -23 7
373 -23 7
374 -23 7
375 -4 -9
376 -4 -9
377 -4 -9
378 -10 23
379 -10 23
380 -10 23
381 -10 23
382 -10 23
383 7 -10
384 7 -10
385 -36 -32
386 -36 -32
387 -36 -32
388 -36 -32
389 -24 47
390 -24 47
391 -24 47
392 -24 47
393 20 7
394 20 7
395 20 7
396 20 7
397 20 7
398 -19 -23
399 -19 -23
400 -19 -23
401 -19 -23
402 -19 -23
403 22 -49
404 22 -49
405 -18 -25
406 -18 -25
407 -18 -25
408 -18 -25
409 -18 -25
410 -18 -25
411 30 34
412 30 34
413 30 34
414 30 34
415 30 34
416 30 34
417 -18 14
418 -18 14
419 -18 14
420 -18 14
421 -18 14
422 -18 14
423 -18 14
424 -18 14
425 27 2
426 27 2
427 27 2
428 39 30
429 39 30
430 39 30
431 39 30
432 39 30
433 39 30
434 39 30
435 19 -5
436 19 -5
437 19 -5
438 19 -5
439 19 -5
440 19 -5
441 -2 49
442 -2 49
443 -2 49
444 -11 -5
445 -11 -5
446 -11 -5
447 4 -48
448 4 -48
449 4 -48
450 38 -50
451 38 -50
452 38 -50
453 38 -50
454 38 -50
455 38 -50
456 -33 37
457 -33 37
458 -33 37
459 -33 37
460 -33 37
461 3 -15
462 3 -15
463 3 -15
464 3 -15
465 8 13
466 8 13
467 8 13
468 -36 -5
469 -36 -5
470 -36 -5
471 -36 -5
472 -36 -5
473 19 -47
474 19 -47
475 19 -47
476 19 -47
477 19 -47
478 19 -47
DEMAND_SECTION
1 0
2 40
3 40
4 10
5 1
6 40
7 20
8 2
9 2
10 2
11 2
12 20
13 2
14 2
15 2
16 2
17 40
18 20
19 2
20 2
21 2
22 1
23 20
24 2
25 2
26 2
27 2
28 1
29 40
30 10
31 2
32 2
33 40
34 40
35 10
36 2
37 2
38 1
39 40
40 2
41 1
42 40
43 20
44 10
45 2
46 2
47 2
48 2
49 1
50 40
51 2
52 2
53 2
54 2
55 1
56 40
57 40
58 2
59 2
60 40
61 40
62 10
63 2
64 2
65 2
66 40
67 40
68 10
69 1
70 40
71 20
72 1
73 20
74 10
75 2
76 2
77 2
78 2
79 40
80 40
81 10
82 1
83 40
84 20
85 10
86 2
87 2
88 2
89 1
90 20
91 10
92 2
93 2
94 1
95 40
96 10
97 2
98 2
99 40
100 20
101 10
102 2
103 2
104 2
105 2
106 1
107 20
108 10
109 2
110 2
111 2
112 40
113 10
114 2
115 20
116 10
117 2
118 2
119 1
120 40
121 20
122 2
123 2
124 2
125 2
126 1
127 40
128 20
129 2
130 2
131 1
132 40
133 20
134 10
135 2
136 2
137 2
138 2
139 1
140 40
141 10
142 2
143 2
144 2
145 1
146 40
147 40
148 2
149 2
150 40
151 10
152 1
153 40
154 40
155 2
156 1
157 40
158 2
159 1
160 40
161 20
162 2
163 1
164 40
165 20
166 2
167 1
168 40
169 2
170 2
171 2
172 2
173 1
174 40
175 20
176 10
177 1
178 20
179 2
180 2
181 2
182 40
183 2
184 2
185 2
186 2
187 40
188 10
189 2
190 1
191 40
192 20
193 2
194 2
195 1
196 40
197 40
198 2
199 2
200 2
201 40
202 2
203 40
204 40
205 2
206 2
207 40
208 40
209 2
210 2
211 1
212 20
213 2
214 2
215 2
216 1
217 40
218 40
219 10
220 40
221 40
222 10
223 2
224 2
225 2
226 40
227 10
228 40
229 40
230 2
231 2
232 2
233 2
234 1
235 40
236 40
237 10
238 2
239 2
240 2
241 2
242 20
243 10
244 2
245 1
246 40
247 2
248 2
249 40
250 40
251 2
252 2
253 40
254 20
255 10
256 2
257 2
258 2
259 2
260 40
261 20
262 10
263 2
264 2
265 2
266 1
267 40
268 40
269 10
270 2
271 2
272 2
273 2
274 1
275 40
276 2
277 2
278 2
279 1
280 20
281 2
282 2
283 2
284 2
285 40
286 20
287 2
288 2
289 1
290 40
291 10
292 2
293 1
294 40
295 40
296 10
297 2
298 1
299 40
300 40
301 10
302 2
303 2
304 2
305 40
306 40
307 10
308 2
309 2
310 2
311 2
312 40
313 20
314 10
315 2
316 40
317 10
318 2
319 2
320 2
321 2
322 1
323 40
324 10
325 2
326 2
327 2
328 1
329 40
330 20
331 10
332 2
333 1
334 40
335 40
336 2
337 2
338 2
339 2
340 40
341 40
342 2
343 2
344 1
345 40
346 40
347 10
348 40
349 40
350 1
351 40
352 40
353 10
354 2
355 1
356 40
357 40
358 2
359 2
360 2
361 20
362 2
363 2
364 2
365 2
366 40
367 20
368 2
369 2
370 2
371 40
372 20
373 2
374 1
375 40
376 20
377 1
378 20
379 10
380 2
381 2
382 2
383 40
384 10
385 40
386 2
387 2
388 1
389 40
390 20
391 2
392 2
393 40
394 2
395 2
396 2
397 1
398 40
399 20
400 10
401 2
402 2
403 40
404 40
405 40
406 20
407 2
408 2
409 2
410 1
411 40
412 20
413 2
414 2
415 2
416 1
417 40
418 20
419 10
420 2
421 2
422 2
423 2
424 1
425 40
426 2
427 1
428 20
429 10
430 2
431 2
432 2
433 2
434 1
435 20
436 10
437 2
438 2
439 2
440 2
441 40
442 40
443 10
444 40
445 20
446 1
447 40
448 40
449 20
450 40
451 20
452 2
453 2
454 2
455 2
456 40
457 40
458 2
459 2
460 1
461 20
462 10
463 2
464 1
465 20
466 10
467 1
468 40
469 20
470 10
471 2
472 1
473 40
474 40
475 2
476 2
477 2
478 2
DEPOT_SECTION
1
-1
EOF