SDVRP instances/custom_instances/p03_19_split0.sol
477 -2 3 1 4 277 278 275 276 274 290 291 292 289 -17 18 57 55 58 56 132 131 460 462 463 461 -29 31 28 30 449 450 454 452 451 453 157 158 156 110 106 107 -32 33 35 37 389 390 388 391 80 81 79 -34 36 367 366 369 368 365 260 262 259 261 264 263 265 38 39 40 -46 45 41 48 42 43 47 44 446 447 448 133 136 135 138 137 134 -60 64 61 59 63 62 6 8 9 5 10 7 14 12 13 15 11 271 273 272 270 -65 67 66 68 71 69 70 125 121 123 122 119 -98 101 103 100 105 99 153 154 155 152 249 -102 104 75 73 72 74 76 77 226 225 352 353 350 351 354 175 -109 108 403 402 476 473 472 475 477 474 120 124 -113 112 111 414 415 410 413 363 360 364 94 96 95 97 464 466 -127 128 126 129 130 458 459 456 455 457 168 172 171 170 169 167 -147 148 146 145 395 392 394 396 393 344 -151 150 149 189 188 187 186 383 382 246 245 247 -173 174 176 92 93 91 90 89 163 166 164 165 374 376 -179 177 178 180 372 373 279 281 282 280 283 201 200 302 303 298 300 299 301 -181 185 182 183 184 240 239 235 237 238 236 234 443 445 -195 357 358 356 355 359 19 20 16 21 375 -198 199 197 196 370 371 305 309 308 307 304 310 -203 205 204 314 312 313 311 192 190 193 191 194 465 -216 217 218 470 469 468 471 467 306 444 -219 330 328 332 331 329 233 231 228 232 227 229 -222 224 223 221 220 207 206 419 421 418 423 422 416 420 -230 142 143 144 140 139 141 202 440 442 441 -251 248 250 384 386 387 385 337 335 336 338 334 333 398 400 -269 266 267 268 244 243 242 241 115 116 117 118 114 434 438 439 436 435 437 -285 286 288 287 284 161 162 159 160 346 345 -317 318 316 319 321 320 315 323 322 326 325 324 327 212 215 211 214 213 426 425 424 -343 340 341 339 342 78 22 26 23 27 25 24 377 381 380 378 379 -349 347 348 293 296 295 297 294 210 208 209 417 -362 361 412 411 49 54 53 51 50 52 253 255 258 252 257 256 254 428 432 429 431 430 433 427 -397 399 401 83 82 84 87 85 88 86 408 407 405 404 406 409 0 





OBJ=
2894.629
BEST_KNOWN=
0.000